# Oyster Restoration Data File
# Generated for 49 sites, selecting K=25
# oyster_comm.dat
set C1 :=
0 13 33 36 44 45 46;
set C2 :=
1 2 3 4 5 6 14 16 17 22 26 28 29 30 35 37 41 43 48;
set C3 :=
7 8 9 15 23 24 27 31 32 38;
set C4 :=
10 19 20 39 40;
set C5 :=
11 12 18 21 25 34 42 47;



